
Gurobi 11.0.0 (win64) logging started Sat Jun 15 09:44:55 2024

Set parameter LogFile to value "./GurobiLog/stage_3_iter_4.log"
Gurobi Optimizer version 11.0.0 build v11.0.0rc2 (win64 - Windows 10.0 (18363.2))

CPU model: Intel(R) Core(TM) i7-8700 CPU @ 3.20GHz, instruction set [SSE2|AVX|AVX2]
Thread count: 6 physical cores, 12 logical processors, using up to 1 threads

Optimize a model with 1065 rows, 10910 columns and 18470 nonzeros
Coefficient statistics:
  Matrix range     [1e+00, 4e+01]
  Objective range  [2e+00, 2e+05]
  Bounds range     [2e+00, 1e+04]
  RHS range        [1e+00, 3e+04]
LP warm-start: use basis
Iteration    Objective       Primal Inf.    Dual Inf.      Time
       0   -5.5678575e+04   3.013762e+04   0.000000e+00      0s
     252    1.8578800e+04   0.000000e+00   0.000000e+00      0s

Solved in 252 iterations and 0.01 seconds (0.01 work units)
Optimal objective  1.857880000e+04

Gurobi 11.0.0 (win64) logging started Sat Jun 15 10:43:33 2024

Set parameter LogFile to value "./GurobiLog/stage_3_iter_4.log"
Gurobi Optimizer version 11.0.0 build v11.0.0rc2 (win64 - Windows 10.0 (18363.2))

CPU model: Intel(R) Core(TM) i7-8700 CPU @ 3.20GHz, instruction set [SSE2|AVX|AVX2]
Thread count: 6 physical cores, 12 logical processors, using up to 1 threads

Optimize a model with 1065 rows, 10910 columns and 18470 nonzeros
Coefficient statistics:
  Matrix range     [1e+00, 4e+01]
  Objective range  [2e+00, 2e+05]
  Bounds range     [2e+00, 1e+04]
  RHS range        [1e+00, 3e+04]
LP warm-start: use basis
Iteration    Objective       Primal Inf.    Dual Inf.      Time
       0    1.7228494e+03   1.088824e+03   0.000000e+00      0s
     214    1.4231134e+04   0.000000e+00   0.000000e+00      0s

Solved in 214 iterations and 0.01 seconds (0.01 work units)
Optimal objective  1.423113421e+04

Gurobi 11.0.0 (win64) logging started Sat Jun 15 11:02:07 2024

Set parameter LogFile to value "./GurobiLog/stage_3_iter_4.log"
Gurobi Optimizer version 11.0.0 build v11.0.0rc2 (win64 - Windows 10.0 (18363.2))

CPU model: Intel(R) Core(TM) i7-8700 CPU @ 3.20GHz, instruction set [SSE2|AVX|AVX2]
Thread count: 6 physical cores, 12 logical processors, using up to 1 threads

Optimize a model with 1065 rows, 10910 columns and 18470 nonzeros
Coefficient statistics:
  Matrix range     [1e+00, 4e+01]
  Objective range  [2e+00, 2e+05]
  Bounds range     [1e+00, 1e+04]
  RHS range        [1e+00, 3e+04]
LP warm-start: use basis
Iteration    Objective       Primal Inf.    Dual Inf.      Time
       0   -7.5690610e+04   1.464271e+04   0.000000e+00      0s
     242    1.4181849e+04   0.000000e+00   0.000000e+00      0s

Solved in 242 iterations and 0.01 seconds (0.01 work units)
Optimal objective  1.418184901e+04
